Normalized Data/p03_28_normalized_splitx10_0.vrp
NAME:p03_28_NORMALIZED_splitx10_
BEST_KNOWN: 0
COMMENT: 0
DIMENSION: 416
CAPACITY: 1000
EDGE_WEIGHT_FORMAT: FUNCTION
EDGE_WEIGHT_TYPE: EXACT_2D
NODE_COORD_SECTION
1 0.00000 0.00000
2 -10 43
3 -10 43
4 -10 43
5 -10 43
6 -31 -31
7 -31 -31
8 -31 -31
9 -31 -31
10 -31 -31
11 -31 -31
12 6 -31
13 6 -31
14 6 -31
15 6 -31
16 6 -31
17 49 14
18 49 14
19 49 14
20 49 14
21 49 14
22 49 14
23 49 14
24 21 46
25 21 46
26 21 46
27 21 46
28 -32 -21
29 -32 -21
30 -32 -21
31 -16 -16
32 -16 -16
33 20 35
34 20 35
35 20 35
36 20 35
37 20 35
38 20 35
39 -38 -10
40 -38 -10
41 -38 -10
42 -38 -10
43 1 34
44 1 34
45 1 34
46 1 34
47 -21 4
48 -21 4
49 -21 4
50 -21 4
51 -21 4
52 -21 4
53 -43 -45
54 -43 -45
55 -43 -45
56 -43 -45
57 -43 -45
58 -43 -45
59 -47 18
60 -47 18
61 -47 18
62 -47 18
63 -47 18
64 3 45
65 3 45
66 3 45
67 3 45
68 3 45
69 -20 -14
70 -20 -14
71 -20 -14
72 19 -29
73 19 -29
74 41 -31
75 41 -31
76 -34 -45
77 -34 -45
78 -34 -45
79 -34 -45
80 -34 -45
81 -34 -45
82 -16 45
83 -16 45
84 -16 45
85 -16 45
86 -16 45
87 2 49
88 2 49
89 2 49
90 2 49
91 -1 -38
92 -1 -38
93 -1 -38
94 -3 37
95 -3 37
96 -3 37
97 -3 37
98 -25 -28
99 -25 -28
100 -25 -28
101 -25 -28
102 -25 -28
103 37 19
104 37 19
105 37 19
106 37 19
107 44 -28
108 44 -28
109 44 -28
110 44 -28
111 -50 -39
112 -50 -39
113 -50 -39
114 -6 -40
115 -6 -40
116 -6 -40
117 32 -2
118 32 -2
119 32 -2
120 32 -2
121 32 -2
122 32 -2
123 32 -2
124 -31 -2
125 -31 -2
126 -31 -2
127 -31 -2
128 -31 -2
129 -34 -49
130 -34 -49
131 -34 -49
132 -34 -49
133 -34 -49
134 27 -31
135 27 -31
136 27 -31
137 27 -31
138 15 34
139 15 34
140 15 34
141 15 34
142 15 34
143 15 34
144 -14 -11
145 -14 -11
146 21 -34
147 21 -34
148 21 -34
149 21 -34
150 9 -43
151 9 -43
152 9 -43
153 9 -43
154 9 -43
155 9 -43
156 24 18
157 24 18
158 15 -19
159 15 -19
160 -42 -33
161 -42 -33
162 46 5
163 46 5
164 46 5
165 46 5
166 46 5
167 -23 35
168 -23 35
169 -23 35
170 -23 35
171 32 33
172 32 33
173 32 33
174 32 33
175 32 33
176 32 33
177 -14 -27
178 -14 -27
179 -14 -27
180 41 6
181 41 6
182 31 28
183 31 28
184 31 28
185 31 28
186 -17 37
187 -17 37
188 -17 37
189 -6 -21
190 -6 -21
191 -6 -21
192 -6 -21
193 29 -32
194 29 -32
195 29 -32
196 -17 43
197 -17 43
198 -17 43
199 -17 43
200 -40 -16
201 -38 -39
202 -38 -39
203 -38 -39
204 -22 15
205 -22 15
206 -22 15
207 -22 15
208 -22 15
209 -14 33
210 -14 33
211 -14 33
212 -14 33
213 -14 33
214 -14 33
215 -14 33
216 3 30
217 3 30
218 3 30
219 3 30
220 3 30
221 3 30
222 -20 -15
223 -20 -15
224 -20 -15
225 -20 -15
226 -20 -15
227 -20 -15
228 -20 -15
229 -36 -14
230 -36 -14
231 -36 -14
232 -36 -14
233 0 4
234 0 4
235 0 4
236 0 4
237 0 4
238 0 4
239 -4 2
240 -4 2
241 -4 2
242 -4 2
243 -43 21
244 -43 21
245 -43 21
246 -43 21
247 45 -43
248 45 -43
249 45 -43
250 45 -43
251 45 -43
252 45 -43
253 -40 41
254 -40 41
255 -40 41
256 -47 22
257 -47 22
258 -47 22
259 -47 22
260 -47 22
261 -47 22
262 -47 22
263 28 30
264 28 30
265 28 30
266 33 -12
267 33 -12
268 -11 -23
269 -11 -23
270 -11 -23
271 -39 -40
272 -39 -40
273 -39 -40
274 -39 -40
275 4 -26
276 4 -26
277 4 -26
278 -6 39
279 -6 39
280 -6 39
281 -44 19
282 -44 19
283 -28 12
284 -28 12
285 -28 12
286 -28 12
287 44 41
288 44 41
289 44 41
290 16 31
291 16 31
292 16 31
293 16 31
294 -33 -49
295 -33 -49
296 -33 -49
297 -33 -49
298 -33 -49
299 27 2
300 27 2
301 27 2
302 27 2
303 27 2
304 27 2
305 16 -49
306 36 -17
307 36 -17
308 36 -17
309 36 -17
310 36 -17
311 36 -17
312 17 -50
313 17 -50
314 17 -50
315 -26 -5
316 -26 -5
317 -26 -5
318 -26 -5
319 -38 46
320 -38 46
321 13 -36
322 13 -36
323 13 -36
324 -2 35
325 -2 35
326 -2 35
327 -2 35
328 -2 35
329 -2 35
330 -22 -23
331 -22 -23
332 -22 -23
333 -22 -23
334 -22 -23
335 -3 -18
336 -3 -18
337 -3 -18
338 -3 -18
339 -28 -3
340 -28 -3
341 -28 -3
342 -28 -3
343 -28 -3
344 -28 -3
345 -28 -3
346 23 -13
347 23 -13
348 23 -13
349 23 -13
350 23 -13
351 23 -13
352 23 -13
353 -50 -39
354 -50 -39
355 -50 -39
356 49 -38
357 49 -38
358 49 -38
359 49 -38
360 49 -38
361 49 -38
362 -12 -24
363 -12 -24
364 -12 -24
365 -12 -24
366 -12 -24
367 -12 -24
368 -4 6
369 -4 6
370 -4 6
371 -4 6
372 -6 -13
373 -6 -13
374 -6 -13
375 -6 -13
376 -6 -13
377 5 -39
378 5 -39
379 49 34
380 49 34
381 49 34
382 -25 5
383 -25 5
384 -25 5
385 22 -7
386 22 -7
387 22 -7
388 -35 -43
389 -35 -43
390 -35 -43
391 12 -44
392 12 -44
393 12 -44
394 -33 34
395 -33 34
396 -33 34
397 -33 34
398 -46 29
399 -46 29
400 -46 29
401 -46 29
402 -46 29
403 41 17
404 41 17
405 41 17
406 41 17
407 41 17
408 -30 35
409 -30 35
410 -30 35
411 -30 35
412 -22 -27
413 -22 -27
414 -22 -27
415 -22 -27
416 -22 -27
DEMAND_SECTION
1 0
2 200
3 50
4 10
5 10
6 200
7 200
8 50
9 10
10 10
11 10
12 200
13 100
14 10
15 10
16 10
17 200
18 100
19 50
20 10
21 10
22 10
23 10
24 100
25 50
26 10
27 10
28 200
29 200
30 50
31 200
32 50
33 200
34 50
35 10
36 10
37 10
38 10
39 200
40 200
41 10
42 10
43 200
44 200
45 50
46 10
47 200
48 50
49 10
50 10
51 10
52 10
53 200
54 200
55 10
56 10
57 10
58 10
59 200
60 200
61 10
62 10
63 10
64 200
65 10
66 10
67 10
68 10
69 200
70 100
71 50
72 200
73 10
74 100
75 50
76 100
77 50
78 10
79 10
80 10
81 10
82 200
83 100
84 10
85 10
86 10
87 200
88 50
89 10
90 10
91 200
92 10
93 10
94 100
95 10
96 10
97 10
98 100
99 10
100 10
101 10
102 10
103 200
104 100
105 50
106 10
107 100
108 10
109 10
110 10
111 200
112 200
113 10
114 200
115 50
116 10
117 200
118 200
119 50
120 10
121 10
122 10
123 10
124 200
125 200
126 50
127 10
128 10
129 200
130 10
131 10
132 10
133 10
134 200
135 50
136 10
137 10
138 200
139 200
140 10
141 10
142 10
143 10
144 200
145 50
146 200
147 200
148 50
149 10
150 200
151 50
152 10
153 10
154 10
155 10
156 200
157 10
158 200
159 100
160 200
161 200
162 200
163 200
164 50
165 10
166 10
167 100
168 10
169 10
170 10
171 200
172 200
173 10
174 10
175 10
176 10
177 200
178 200
179 10
180 200
181 50
182 200
183 200
184 10
185 10
186 100
187 50
188 10
189 100
190 50
191 10
192 10
193 200
194 200
195 50
196 200
197 10
198 10
199 10
200 200
201 200
202 50
203 10
204 200
205 50
206 10
207 10
208 10
209 200
210 200
211 50
212 10
213 10
214 10
215 10
216 200
217 200
218 10
219 10
220 10
221 10
222 200
223 100
224 50
225 10
226 10
227 10
228 10
229 100
230 50
231 10
232 10
233 100
234 50
235 10
236 10
237 10
238 10
239 200
240 100
241 10
242 10
243 100
244 50
245 10
246 10
247 200
248 50
249 10
250 10
251 10
252 10
253 200
254 10
255 10
256 200
257 100
258 50
259 10
260 10
261 10
262 10
263 200
264 200
265 50
266 200
267 200
268 200
269 200
270 10
271 100
272 50
273 10
274 10
275 200
276 200
277 50
278 200
279 200
280 100
281 200
282 50
283 200
284 200
285 10
286 10
287 100
288 50
289 10
290 200
291 200
292 10
293 10
294 200
295 100
296 10
297 10
298 10
299 200
300 50
301 10
302 10
303 10
304 10
305 200
306 200
307 100
308 10
309 10
310 10
311 10
312 200
313 100
314 10
315 200
316 50
317 10
318 10
319 200
320 100
321 100
322 10
323 10
324 200
325 100
326 10
327 10
328 10
329 10
330 200
331 200
332 10
333 10
334 10
335 200
336 200
337 10
338 10
339 200
340 200
341 50
342 10
343 10
344 10
345 10
346 200
347 100
348 50
349 10
350 10
351 10
352 10
353 200
354 200
355 10
356 200
357 100
358 10
359 10
360 10
361 10
362 200
363 200
364 10
365 10
366 10
367 10
368 200
369 10
370 10
371 10
372 200
373 100
374 10
375 10
376 10
377 200
378 50
379 200
380 200
381 100
382 200
383 50
384 10
385 100
386 10
387 10
388 200
389 200
390 10
391 200
392 100
393 50
394 100
395 10
396 10
397 10
398 200
399 10
400 10
401 10
402 10
403 100
404 10
405 10
406 10
407 10
408 200
409 200
410 50
411 10
412 200
413 200
414 10
415 10
416 10
DEPOT_SECTION
1
-1
EOF