Normalized Data/p03_28_normalized_splitx10_0.sol
415 -1 4 3 2 82 81 84 83 85 198 195 196 197 185 186 187 -15 14 12 11 13 154 153 150 152 151 149 376 377 -31 30 223 221 68 69 143 -49 51 282 58 61 62 60 59 281 280 245 244 205 204 240 241 -73 74 248 247 250 249 246 251 356 359 355 357 360 358 109 108 107 106 -97 9 8 7 5 10 6 160 159 224 227 -101 98 99 100 201 200 202 272 271 53 55 54 57 56 52 387 -114 113 115 92 90 91 275 276 274 -120 118 119 122 121 117 116 301 303 299 298 302 300 -125 123 127 124 126 342 339 340 338 344 341 343 317 -135 136 134 133 194 193 192 347 345 351 350 -144 70 28 29 27 413 411 412 415 414 -147 146 148 145 71 72 158 157 -155 156 103 104 102 105 405 402 179 180 -163 165 164 162 161 16 22 21 18 20 17 19 403 404 406 -181 182 171 170 262 -183 184 379 378 380 287 286 288 174 173 172 175 264 263 -191 189 190 188 361 362 363 267 269 268 -203 207 206 393 396 395 394 169 168 167 166 209 208 210 214 211 212 213 -215 218 220 217 219 216 45 43 44 42 239 -222 225 226 330 331 333 332 329 178 177 176 365 364 366 -229 111 352 353 354 110 112 270 273 -231 228 230 199 38 39 41 40 314 315 316 -233 232 139 137 138 141 140 142 291 289 290 -235 64 65 67 66 63 87 86 88 89 26 24 23 25 37 36 35 32 33 34 292 -237 234 236 327 328 325 323 326 324 96 95 93 94 277 279 278 -238 50 47 48 46 381 382 383 367 369 368 370 -253 254 252 318 319 408 410 407 409 -284 283 285 242 243 256 255 257 260 259 258 261 398 397 400 401 399 -295 297 296 293 294 128 130 129 131 132 75 79 80 77 76 78 389 388 -322 320 321 311 312 313 304 392 391 390 -335 334 336 337 374 373 371 372 375 -349 348 346 310 306 309 308 305 307 265 266 386 384 385 0 





OBJ=
3055.280
BEST_KNOWN=
0.000